
50
126942

8821 6821
2917 917
8179 6179
10420 8420
11346 8346
7151 5151
8311 6311
5693 3693
7281 5281
3079 1079
8830 6830
8007 6007
5820 2820
6786 3786
10362 7362
6439 4439
11597 9597
11713 9713
10384 8384
2911 911
2752 752
5886 2886
6612 3612
10050 7050
10269 8269
7627 5627
8392 6392
7731 5731
2341 341
7267 5267
4133 2133
7170 4170
2088 88
9558 6558
11103 9103
2687 687
7801 5801
2235 235
5519 3519
3593 1593
10606 8606
9281 7281
10966 8966
4180 2180
9189 7189
8995 6995
7107 5107
12162 9162
8250 6250
4829 2829
